(set-option :produce-models true)
(set-logic QF_UF)
(declare-fun p9() Bool)
(declare-fun p40() Bool)
(declare-fun p41() Bool)
(declare-fun p4() Bool)
(declare-fun p25() Bool)
(declare-fun p22() Bool)
(declare-fun p21() Bool)
(declare-fun p5() Bool)
(declare-fun p3() Bool)
(declare-fun p38() Bool)
(declare-fun p7() Bool)
(declare-fun p11() Bool)
(declare-fun p15() Bool)
(declare-fun p43() Bool)
(declare-fun p29() Bool)
(declare-fun p10() Bool)
(declare-fun p18() Bool)
(declare-fun p28() Bool)
(declare-fun p14() Bool)
(declare-fun p24() Bool)
(declare-fun p27() Bool)
(declare-fun p30() Bool)
(declare-fun p48() Bool)
(declare-fun p34() Bool)
(declare-fun p1() Bool)
(declare-fun p37() Bool)
(declare-fun p8() Bool)
(declare-fun p0() Bool)
(declare-fun p6() Bool)
(declare-fun p20() Bool)
(declare-fun p32() Bool)
(declare-fun p42() Bool)
(declare-fun p33() Bool)
(declare-fun p16() Bool)
(declare-fun p31() Bool)
(declare-fun p19() Bool)
(declare-fun p17() Bool)
(declare-fun p45() Bool)
(declare-fun p47() Bool)
(declare-fun p44() Bool)
(declare-fun p39() Bool)
(declare-fun p2() Bool)
(declare-fun p12() Bool)
(declare-fun p13() Bool)
(declare-fun p36() Bool)
(declare-fun p46() Bool)
(declare-fun p26() Bool)
(declare-fun p49() Bool)
(declare-fun p35() Bool)
(declare-fun p23() Bool)
(assert
(and (or (not p9) (not p40) p41) (or (not p4) (not p25) (not p22)) (or (not p21) p5 (not p3)) (or p38 p7 (not p5)) (or (not p11) (not p40) p25) (or (not p15) (not p43) p29) (or (not p10) p18 (not p28)) (or (not p14) p24 p7) (or (not p27) p30 p21) (or p48 (not p40) p30) (or p34 (not p1) (not p48)) (or (not p37) (not p38) p14) (or p28 p8 (not p5)) (or p14 p27 (not p14)) (or p11 (not p41) p0) (or (not p0) (not p6) (not p20)) (or (not p48) p32 p10) (or p5 (not p4) p1) (or p42 p0 p33) (or p33 p32 (not p28)) (or (not p16) (not p8) p31) (or (not p27) p19 (not p17)) (or (not p48) p45 p29) (or p30 p47 p11) (or (not p44) (not p44) p18) (or p44 p39 p32) (or p47 (not p33) (not p41)) (or (not p47) p37 (not p2)) (or (not p12) (not p22) p42) (or (not p0) p13 p32) (or p48 p37 (not p38)) (or (not p9) (not p20) p36) (or (not p8) p29 p31) (or (not p38) (not p46) p19) (or p26 p29 p19) (or (not p21) p25 p32) (or (not p17) p19 (not p9)) (or p17 (not p18) (not p46)) (or p6 (not p44) p9) (or (not p27) (not p17) (not p49)) (or (not p12) (not p8) p45) (or (not p20) (not p26) p31) (or p34 p3 p0) (or p4 p19 (not p40)) (or p20 (not p11) (not p20)) (or (not p1) p34 (not p24)) (or (not p12) p39 p3) (or p37 p32 p21) (or (not p9) p31 (not p4)) (or (not p34) p45 p16) (or (not p37) p1 (not p22)) (or p13 (not p11) p48) (or (not p27) p5 (not p15)) (or (not p35) (not p8) p43) (or p2 p21 p44) (or (not p24) (not p14) (not p20)) (or (not p36) p36 (not p16)) (or (not p26) p38 p0) (or (not p17) p46 (not p15)) (or p24 (not p34) p40) (or (not p41) p5 (not p46)) (or (not p2) p7 p24) (or (not p42) p46 p43) (or (not p0) (not p34) (not p14)) (or p19 p23 (not p1)) (or p49 p34 (not p3)) (or (not p44) (not p4) (not p19)) (or (not p35) (not p3) p15) (or (not p25) (not p9) (not p13)) (or p40 p35 (not p47)) (or p41 (not p4) (not p17)) (or (not p8) (not p27) p19) (or p37 p15 (not p6)) (or (not p41) (not p48) (not p22)) (or (not p45) p18 p28) (or (not p40) (not p48) p27) (or p12 (not p31) p9) (or p45 p35 (not p27)) (or p8 (not p34) p13) (or (not p42) (not p7) (not p7)) (or (not p24) (not p18) p47) (or p15 (not p44) (not p44)) (or p41 p28 p30) (or p17 p31 p25) (or p48 (not p42) (not p31)) (or (not p18) p35 (not p42)) (or p31 p25 (not p9)) (or p30 (not p21) (not p37)) (or p29 (not p4) p18) (or p25 (not p41) (not p18)) (or p41 p37 (not p33)) (or p30 p15 p19) (or (not p14) p28 p43) (or (not p40) p8 p29) (or (not p24) p32 p48) (or p11 (not p9) p27) (or (not p46) (not p24) (not p30)) (or (not p33) p45 p20) (or p18 p25 p47) (or p14 (not p29) p43) (or p23 (not p44) p33) (or p0 (not p49) p12) (or p34 (not p23) p35) (or (not p33) (not p29) p34) (or p24 (not p3) (not p26)) (or (not p33) (not p36) (not p26)) (or (not p26) p49 p29) (or p32 (not p43) p23) (or (not p14) (not p28) p16) (or (not p10) (not p18) p25) (or (not p37) (not p29) (not p15)) (or p31 (not p33) (not p36)) (or (not p0) p43 (not p35)) (or (not p35) p37 (not p28)) (or (not p29) (not p37) (not p2)) (or (not p47) (not p33) (not p27)) (or p39 (not p35) (not p20)) (or (not p39) (not p34) p34) (or p34 p45 p13) (or p9 p12 (not p14)) (or (not p17) (not p23) (not p41)) (or p31 p25 p29) (or (not p38) (not p38) (not p16)) (or p38 (not p34) (not p21)) (or p32 (not p38) p38) (or p30 (not p37) (not p25)) (or (not p22) p0 p22) (or p19 p6 (not p15)) (or (not p2) (not p40) p31) (or p3 (not p1) (not p6)) (or (not p49) (not p23) (not p46)) (or p6 p17 p48) (or p26 p23 p48) (or p36 p37 p19) (or p1 p10 p9) (or p47 p12 p7) (or p47 p47 p14) (or (not p4) (not p13) (not p29)) (or (not p38) (not p25) p37) (or (not p46) (not p0) (not p13)) (or (not p35) p4 (not p3)) (or (not p18) p12 p6) (or p34 p7 p38) (or p31 (not p1) p35) (or p19 p30 p35) (or p46 p38 p28) (or p11 p17 p37) (or (not p4) (not p14) p25) (or (not p14) (not p47) (not p30)) (or (not p27) (not p18) p31) (or p33 p38 (not p3)) (or (not p4) (not p44) (not p43)) (or p30 p20 p25) (or p4 p11 p15) (or (not p21) (not p23) (not p6)) (or p6 (not p47) p39) (or p7 p24 p45) (or p19 (not p34) (not p9)) (or p42 p15 p1) (or p27 (not p20) (not p1)) (or p11 (not p9) p28) (or p33 p33 p31) (or p20 (not p14) (not p46)) (or p3 p9 p24) (or p31 (not p13) p4) (or p34 (not p35) (not p16)) (or (not p40) p19 p16) (or p48 p13 p30) (or (not p3) p47 (not p4)) (or p38 (not p46) p25) (or p8 (not p1) (not p26)) (or p34 (not p48) (not p13)) (or (not p45) (not p12) p19) (or p31 (not p31) p40) (or p28 (not p24) p14) (or p26 p11 p31) (or (not p33) (not p35) (not p38)) (or p40 (not p32) p27) (or p10 p1 (not p15)) (or p29 p5 (not p2)) (or p47 p39 (not p23)) (or (not p17) (not p19) p14) (or p42 (not p49) (not p18)) (or p6 (not p24) (not p25)) (or (not p14) (not p41) p48) (or p44 p0 p7) (or p29 p11 (not p9)) (or (not p33) p4 (not p9)) (or p17 (not p33) p0) (or p22 p21 p11) (or (not p30) (not p5) p2) (or (not p8) (not p5) p42) (or (not p1) (not p7) p49) (or p37 (not p49) p29) (or p34 (not p7) p22) (or (not p43) p31 p24) (or (not p16) p15 p20) (or (not p18) p32 p2) (or p23 p8 p16) (or (not p6) (not p46) (not p26)) (or (not p29) p41 (not p21)) (or (not p45) (not p39) (not p39)) (or (not p26) (not p18) p3) (or p38 (not p39) p11) (or p43 (not p23) (not p37)) (or p24 p26 (not p8)) (or (not p33) p4 p47) (or p20 (not p21) p8) (or (not p41) p6 p48) (or (not p3) (not p33) (not p6)))
)
(check-sat)
(get-model)
